Route #1: 11 59 14 53 7
Route #2: 26 38 10 58 12
Route #3: 40 9 25 55 31 39
Route #4: 50 18 24 49 56 23 63 6
Route #5: 17 32 44 3 16 51
Route #6: 33 28 61 21 2
Route #7: 62 22 64 42 41 43 1
Route #8: 47 36 60 20 37 15 57 13 54
Route #9: 35 19 8 46 34 52 27
Route #10: 30 48 5 29 45 4
Cost 830